NAME : a280.tsp
COMMENT : Optimal tour for a280.tsp
TYPE : TOUR
DIMENSION : 280
Total Length: 2870.4465338155114
TOUR_SECTION
1
2
280
3
248
249
250
251
247
243
242
241
244
245
240
239
238
231
246
230
229
228
233
232
237
236
235
234
227
226
225
224
223
222
221
220
219
218
215
214
213
216
217
204
205
206
212
211
210
207
208
209
252
253
255
256
254
257
258
259
260
261
262
263
264
265
267
268
269
270
134
135
136
137
138
266
140
141
142
143
144
203
202
196
197
195
194
192
191
190
189
188
165
164
163
162
174
173
107
106
170
171
172
166
167
168
169
101
100
99
98
93
97
96
95
94
80
79
81
82
83
76
78
77
75
74
73
72
71
70
66
67
69
68
58
57
56
55
54
53
52
51
50
49
48
47
46
45
44
59
62
63
64
65
85
86
116
113
87
84
88
112
109
89
90
91
92
102
103
104
105
108
110
111
114
115
117
118
61
60
43
42
41
40
39
38
37
36
35
34
33
32
31
30
125
124
123
122
121
120
119
157
158
159
160
175
161
176
179
180
181
182
183
184
185
187
186
193
198
201
200
199
145
146
147
148
139
149
150
178
177
151
152
156
153
155
154
129
127
126
29
28
27
26
128
21
130
131
132
133
17
18
19
20
22
25
23
24
14
16
271
272
273
274
275
276
277
278
279
4
5
6
9
15
13
12
11
10
8
7
-1
EOF
